570
531 570
570
570 608
570
531 570
570
570 608
608
608 641
608
570 608
570
531 570
570
570 608
570
531 570
531
531 570
570
570 608
598
598 608
608
608 641
641
641 644
641
608 641
608
608 641
608
598 608
598
598 608
598
588 598
598
588 598
588
588 598
588
570 588
588
588 598
598
598 608
608
598 608
598
598 605
605
598 605
598
598 605
605
605 608
605
605 608
605
598 605
598
598 605
605
598 605
598
588 598
598
588 598
598
598 605
598
588 598
598
598 605
605
598 605
598
598 605
605
598 605
605
605 608
608
605 608
608
608 628
608
608 628
608
605 608
608
605 608
608
605 608
605
598 605
598
592 598
598
598 605
605
598 605
598
598 605
605
605 608
605
598 605
605
598 605
605
598 605
605
598 605
598
598 605
598
598 605
598
592 598
592
589 592
589
589 592
592
589 592
589
589 592
589
588 589
588
582 588
582
581 582
581
581 582
582
582 588
582
582 588
582
581 582
582
581 582
582
582 588
582
581 582
581
570 581
570
570 581
570
564 570
570
570 581
570
570 581
570
564 570
564
564 570
564
564 570
570
570 577
577
570 577
570
570 577
577
570 577
577
570 577
570
570 577
570
570 577
570
564 570
564
556 564
564
564 570
564
556 564
556
556 564
556
556 564
556
540 556
556
556 564
564
556 564
564
564 570
570
564 570
564
556 564
564
556 564
556
540 556
540
534 540
534
531 534
534
534 540
540
534 540
540
540 542
540
540 542
540
534 540
540
540 542
542
541 542
542
542 556
556
556 564
564
564 570
564
556 564
556
556 564
556
542 556
556
556 564
564
564 570
564
564 570
564
564 570
564
564 570
570
570 572
572
572 577
577
572 577
572
570 572
570
564 570
564
556 564
556
556 564
564
556 564
564
556 564
556
542 556
542
541 542
541
541 542
542
541 542
541
540 541
540
540 541
541
541 542
541
541 542
542
542 553
542
541 542
541
540 541
541
541 542
541
540 541
541
541 542
542
541 542
542
541 542
541
540 541
540
540 541
541
540 541
540
540 541
541
540 541
541
541 542
541
541 542
542
541 542
541
541 542
541
541 542
542
542 553
553
542 553
553
542 553
542
542 553
542
541 542
541
541 542
542
541 542
542
541 542
541
541 542
542
541 542
541
540 541
540
540 541
540
540 541
541
540 541
540
539 540
539
538 539
538
534 538
534
532 534
534
532 534
534
534 538
538
538 539
539
538 539
538
534 538
538
538 539
539
538 539
539
539 540
540
540 541
541
540 541
540
540 541
541
541 542
541
541 542
541
540 541
540
540 541
540
540 541
540
540 541
541
541 542
541
541 542
542
541 542
541
541 542
541
541 542
542
541 542
541
541 542
541
540 541
541
540 541
541
540 541
541
541 542
541
540 541
541
540 541
540
539 540
539
539 540
540
539 540
539
539 540
539
538 539
539
538 539
539
539 540
539
538 539
539
538 539
538
537 538
538
538 539
539
538 539
539
538 539
539
538 539
538
538 539
538
537 538
538
538 539
539
538 539
538
537 538
537
537 538
538
538 539
539
538 539
539
538 539
538
537 538
537
534 537
534
532 534
532
532 534
532
532 534
534
532 534
532
531 532
532
531 532
532
531 532
531
530 531
531
530 531
531
530 531
530
530 531
531
530 531
531
531 532
531
531 532
531
530 531
530
530 531
531
530 531
531
531 532
531
530 531
530
530 531
531
530 531
530
530 531
530
529 530
529
528 529
529
528 529
529
528 529
529
528 529
529
528 529
528
522 528
522
522 528
522
521 522
521
517 521
517
516 517
517
516 517
516
514 516
514
514 516
514
513 514
513
508 513
508
508 513
508
508 513
513
513 514
514
513 514
513
513 514
514
513 514
513
513 514
514
514 516
516
514 516
516
514 516
514
513 514
514
514 516
516
516 517
516
516 517
516
516 517
516
514 516
516
514 516
516
514 516
516
514 516
514
514 516
516
514 516
516
516 517
516
514 516
516
514 516
514
513 514
514
513 514
514
513 514
513
511 513
511
511 513
511
511 513
511
510 511
511
510 511
510
508 510
508
508 510
510
510 511
511
510 511
510
510 511
510
508 510
508
507 508
508
507 508
507
506 507
506
505 506
505
504 505
505
505 506
506
505 506
505
504 505
504
504 505
505
505 506
505
505 506
505
504 505
504
503 504
503
503 504
503
502 503
503
502 503
502
501 502
502
501 502
502
501 502
501
500 501
501
500 501
500
499 500
500
500 501
500
500 501
501
501 502
501
501 502
501
500 501
500
500 501
500
499 500
500
499 500
499
497 499
499
499 500
500
500 501
500
500 501
501
501 502
501
500 501
501
501 502
501
501 502
501
501 502
501
500 501
501
500 501
500
499 500
500
500 501
501
501 502
502
502 503
502
501 502
501
500 501
500
499 500
500
500 501
501
500 501
501
500 501
501
501 502
501
501 502
501
500 501
501
501 502
502
501 502
501
500 501
501
501 502
502
502 503
502
501 502
501
500 501
500
499 500
499
499 500
499
497 499
499
499 500
499
497 499
497
497 499
497
496 497
497
496 497
497
496 497
497
497 499
499
497 499
499
499 500
499
497 499
499
499 500
499
497 499
497
497 499
497
496 497
497
497 499
497
496 497
496
496 497
496
495 496
496
495 496
495
495 496
495
495 496
495
493 495
493
493 495
495
495 496
495
495 496
496
496 497
496
495 496
496
495 496
496
495 496
495
495 496
496
496 497
497
497 499
499
499 500
499
499 500
500
500 501
500
500 501
501
501 502
502
501 502
502
502 503
503
503 504
504
503 504
503
503 504
504
504 505
505
504 505
505
504 505
505
504 505
504
504 505
505
504 505
505
505 506
506
506 507
507
507 508
508
507 508
508
508 510
508
508 510
510
508 510
508
508 510
510
508 510
508
508 510
510
508 510
508
507 508
508
507 508
507
507 508
507
506 507
506
505 506
506
506 507
507
507 508
507
506 507
506
505 506
505
505 506
505
505 506
506
506 507
506
506 507
506
506 507
506
505 506
506
506 507
506
505 506
505
505 506
505
505 506
505
504 505
505
504 505
505
504 505
505
504 505
505
505 506
506
506 507
506
506 507
507
507 508
507
507 508
507
506 507
506
505 506
505
504 505
504
503 504
503
502 503
502
502 503
503
503 504
504
504 505
505
504 505
504
503 504
503
502 503
503
502 503
503
503 504
504
504 505
504
503 504
504
503 504
504
503 504
503
503 504
504
504 505
504
503 504
503
502 503
502
501 502
502
502 503
502
502 503
503
503 504
503
502 503
503
502 503
502
502 503
503
502 503
503
502 503
503
503 504
503
503 504
504
503 504
504
504 505
504
503 504
503
502 503
502
502 503
503
502 503
502
502 503
502
501 502
501
500 501